164
100
29
30
2
5
31
90
56
12
47
90
16
17
14
29
10
1
68
14
30
24
47
15
67
56
75
21
35
65
82
60
92
36
68
17
76
13
20
17
38
95
13
1
7
15
7
5
86
9
61
22
13
49
69
72
32
92
66
31
45
79
10
14
19
19
1
56
75
21
39
14
40
76
30
11
72
16
3
14
33
49
99
14
7
38
83
30
36
65
32
100
67
93
18
71
63
65
44
85
16
14
60
1
11
2
4
31
44
9
11
34
35
88
31
40
7
1
7
93
21
49
26
19
56
2
4
53
55
22
11
28
31
17
32
55
21
18
8
11
83
99
74
3
11
35
21
95
5
8
65
5
5
7
6
16
8
18
93
34
10
40
1
79
69
26
